p cnf 725 2353
-1 -4 51 0
1 -4 -51 0
-1 4 -51 0
1 4 51 0
-5 6 52 0
5 6 -52 0
-5 -6 -52 0
5 -6 52 0
9 -10 53 0
-9 -10 -53 0
9 10 -53 0
-9 10 53 0
-11 -12 54 0
11 -12 -54 0
-11 12 -54 0
11 12 54 0
-15 -17 55 0
15 -17 -55 0
-15 17 -55 0
15 17 55 0
-18 -24 56 0
18 -24 -56 0
-18 24 -56 0
18 24 56 0
-25 -26 57 0
25 -26 -57 0
-25 26 -57 0
25 26 57 0
-28 -29 58 0
28 -29 -58 0
-28 29 -58 0
28 29 58 0
-30 -31 59 0
30 -31 -59 0
-30 31 -59 0
30 31 59 0
-32 -33 60 0
32 -33 -60 0
-32 33 -60 0
32 33 60 0
35 38 61 0
-35 38 -61 0
35 -38 -61 0
-35 -38 61 0
39 40 62 0
-39 40 -62 0
39 -40 -62 0
-39 -40 62 0
-43 -44 63 0
43 -44 -63 0
-43 44 -63 0
43 44 63 0
-45 -47 64 0
45 -47 -64 0
-45 47 -64 0
45 47 64 0
50 -51 65 0
-50 -51 -65 0
50 51 -65 0
-50 51 65 0
52 -53 66 0
-52 -53 -66 0
52 53 -66 0
-52 53 66 0
54 -55 67 0
-54 -55 -67 0
54 55 -67 0
-54 55 67 0
56 -57 68 0
-56 -57 -68 0
56 57 -68 0
-56 57 68 0
58 -59 69 0
-58 -59 -69 0
58 59 -69 0
-58 59 69 0
60 -61 70 0
-60 -61 -70 0
60 61 -70 0
-60 61 70 0
62 -63 71 0
-62 -63 -71 0
62 63 -71 0
-62 63 71 0
64 -65 72 0
-64 -65 -72 0
64 65 -72 0
-64 65 72 0
66 -67 73 0
-66 -67 -73 0
66 67 -73 0
-66 67 73 0
68 -69 74 0
-68 -69 -74 0
68 69 -74 0
-68 69 74 0
70 -71 75 0
-70 -71 -75 0
70 71 -75 0
-70 71 75 0
72 -73 76 0
-72 -73 -76 0
72 73 -76 0
-72 73 76 0
74 -75 77 0
-74 -75 -77 0
74 75 -77 0
-74 75 77 0
76 77 0
-76 -77 0
-4 -5 78 0
4 -5 -78 0
-4 5 -78 0
4 5 78 0
10 12 79 0
-10 12 -79 0
10 -12 -79 0
-10 -12 79 0
-17 -20 80 0
17 -20 -80 0
-17 20 -80 0
17 20 80 0
21 22 81 0
-21 22 -81 0
21 -22 -81 0
-21 -22 81 0
-23 -26 82 0
23 -26 -82 0
-23 26 -82 0
23 26 82 0
-30 -32 83 0
30 -32 -83 0
-30 32 -83 0
30 32 83 0
39 43 84 0
-39 43 -84 0
39 -43 -84 0
-39 -43 84 0
44 -47 85 0
-44 -47 -85 0
44 47 -85 0
-44 47 85 0
78 -79 86 0
-78 -79 -86 0
78 79 -86 0
-78 79 86 0
80 -81 87 0
-80 -81 -87 0
80 81 -87 0
-80 81 87 0
82 -83 88 0
-82 -83 -88 0
82 83 -88 0
-82 83 88 0
84 -85 89 0
-84 -85 -89 0
84 85 -89 0
-84 85 89 0
86 -87 90 0
-86 -87 -90 0
86 87 -90 0
-86 87 90 0
88 -89 91 0
-88 -89 -91 0
88 89 -91 0
-88 89 91 0
90 91 0
-90 -91 0
-2 4 92 0
2 4 -92 0
-2 -4 -92 0
2 -4 92 0
-5 -6 93 0
5 -6 -93 0
-5 6 -93 0
5 6 93 0
7 9 94 0
-7 9 -94 0
7 -9 -94 0
-7 -9 94 0
14 -18 95 0
-14 -18 -95 0
14 18 -95 0
-14 18 95 0
22 24 96 0
-22 24 -96 0
22 -24 -96 0
-22 -24 96 0
-25 -26 97 0
25 -26 -97 0
-25 26 -97 0
25 26 97 0
-27 29 98 0
27 29 -98 0
-27 -29 -98 0
27 -29 98 0
31 -36 99 0
-31 -36 -99 0
31 36 -99 0
-31 36 99 0
-37 -38 100 0
37 -38 -100 0
-37 38 -100 0
37 38 100 0
39 -41 101 0
-39 -41 -101 0
39 41 -101 0
-39 41 101 0
42 -43 102 0
-42 -43 -102 0
42 43 -102 0
-42 43 102 0
45 -46 103 0
-45 -46 -103 0
45 46 -103 0
-45 46 103 0
47 48 104 0
-47 48 -104 0
47 -48 -104 0
-47 -48 104 0
-49 -50 105 0
49 -50 -105 0
-49 50 -105 0
49 50 105 0
92 -93 106 0
-92 -93 -106 0
92 93 -106 0
-92 93 106 0
94 -95 107 0
-94 -95 -107 0
94 95 -107 0
-94 95 107 0
96 -97 108 0
-96 -97 -108 0
96 97 -108 0
-96 97 108 0
98 -99 109 0
-98 -99 -109 0
98 99 -109 0
-98 99 109 0
100 -101 110 0
-100 -101 -110 0
100 101 -110 0
-100 101 110 0
102 -103 111 0
-102 -103 -111 0
102 103 -111 0
-102 103 111 0
104 -105 112 0
-104 -105 -112 0
104 105 -112 0
-104 105 112 0
106 -107 113 0
-106 -107 -113 0
106 107 -113 0
-106 107 113 0
108 -109 114 0
-108 -109 -114 0
108 109 -114 0
-108 109 114 0
110 -111 115 0
-110 -111 -115 0
110 111 -115 0
-110 111 115 0
112 -113 116 0
-112 -113 -116 0
112 113 -116 0
-112 113 116 0
114 -115 117 0
-114 -115 -117 0
114 115 -117 0
-114 115 117 0
116 117 0
-116 -117 0
1 2 118 0
-1 2 -118 0
1 -2 -118 0
-1 -2 118 0
5 -8 119 0
-5 -8 -119 0
5 8 -119 0
-5 8 119 0
-9 -11 120 0
9 -11 -120 0
-9 11 -120 0
9 11 120 0
22 -23 121 0
-22 -23 -121 0
22 23 -121 0
-22 23 121 0
-26 -28 122 0
26 -28 -122 0
-26 28 -122 0
26 28 122 0
30 34 123 0
-30 34 -123 0
30 -34 -123 0
-30 -34 123 0
39 40 124 0
-39 40 -124 0
39 -40 -124 0
-39 -40 124 0
-41 44 125 0
41 44 -125 0
-41 -44 -125 0
41 -44 125 0
45 50 126 0
-45 50 -126 0
45 -50 -126 0
-45 -50 126 0
118 -119 127 0
-118 -119 -127 0
118 119 -127 0
-118 119 127 0
120 -121 128 0
-120 -121 -128 0
120 121 -128 0
-120 121 128 0
122 -123 129 0
-122 -123 -129 0
122 123 -129 0
-122 123 129 0
124 -125 130 0
-124 -125 -130 0
124 125 -130 0
-124 125 130 0
126 -127 131 0
-126 -127 -131 0
126 127 -131 0
-126 127 131 0
128 -129 132 0
-128 -129 -132 0
128 129 -132 0
-128 129 132 0
-130 -131 132 0
130 -131 -132 0
-130 131 -132 0
130 131 132 0
1 -3 133 0
-1 -3 -133 0
1 3 -133 0
-1 3 133 0
4 -6 134 0
-4 -6 -134 0
4 6 -134 0
-4 6 134 0
-7 8 135 0
7 8 -135 0
-7 -8 -135 0
7 -8 135 0
-9 -10 136 0
9 -10 -136 0
-9 10 -136 0
9 10 136 0
11 -13 137 0
-11 -13 -137 0
11 13 -137 0
-11 13 137 0
14 19 138 0
-14 19 -138 0
14 -19 -138 0
-14 -19 138 0
20 -22 139 0
-20 -22 -139 0
20 22 -139 0
-20 22 139 0
-24 -25 140 0
24 -25 -140 0
-24 25 -140 0
24 25 140 0
27 30 141 0
-27 30 -141 0
27 -30 -141 0
-27 -30 141 0
-32 34 142 0
32 34 -142 0
-32 -34 -142 0
32 -34 142 0
35 -39 143 0
-35 -39 -143 0
35 39 -143 0
-35 39 143 0
-40 -41 144 0
40 -41 -144 0
-40 41 -144 0
40 41 144 0
43 44 145 0
-43 44 -145 0
43 -44 -145 0
-43 -44 145 0
-46 47 146 0
46 47 -146 0
-46 -47 -146 0
46 -47 146 0
132 -133 147 0
-132 -133 -147 0
132 133 -147 0
-132 133 147 0
134 -135 148 0
-134 -135 -148 0
134 135 -148 0
-134 135 148 0
136 -137 149 0
-136 -137 -149 0
136 137 -149 0
-136 137 149 0
138 -139 150 0
-138 -139 -150 0
138 139 -150 0
-138 139 150 0
140 -141 151 0
-140 -141 -151 0
140 141 -151 0
-140 141 151 0
142 -143 152 0
-142 -143 -152 0
142 143 -152 0
-142 143 152 0
144 -145 153 0
-144 -145 -153 0
144 145 -153 0
-144 145 153 0
146 -147 154 0
-146 -147 -154 0
146 147 -154 0
-146 147 154 0
148 -149 155 0
-148 -149 -155 0
148 149 -155 0
-148 149 155 0
150 -151 156 0
-150 -151 -156 0
150 151 -156 0
-150 151 156 0
152 -153 157 0
-152 -153 -157 0
152 153 -157 0
-152 153 157 0
154 -155 158 0
-154 -155 -158 0
154 155 -158 0
-154 155 158 0
156 -157 159 0
-156 -157 -159 0
156 157 -159 0
-156 157 159 0
158 159 0
-158 -159 0
-1 -2 160 0
1 -2 -160 0
-1 2 -160 0
1 2 160 0
4 -7 161 0
-4 -7 -161 0
4 7 -161 0
-4 7 161 0
-11 12 162 0
11 12 -162 0
-11 -12 -162 0
11 -12 162 0
-14 15 163 0
14 15 -163 0
-14 -15 -163 0
14 -15 163 0
-16 18 164 0
16 18 -164 0
-16 -18 -164 0
16 -18 164 0
22 -23 165 0
-22 -23 -165 0
22 23 -165 0
-22 23 165 0
24 -25 166 0
-24 -25 -166 0
24 25 -166 0
-24 25 166 0
-26 -30 167 0
26 -30 -167 0
-26 30 -167 0
26 30 167 0
-32 35 168 0
32 35 -168 0
-32 -35 -168 0
32 -35 168 0
42 -44 169 0
-42 -44 -169 0
42 44 -169 0
-42 44 169 0
45 -46 170 0
-45 -46 -170 0
45 46 -170 0
-45 46 170 0
49 -50 171 0
-49 -50 -171 0
49 50 -171 0
-49 50 171 0
160 -161 172 0
-160 -161 -172 0
160 161 -172 0
-160 161 172 0
162 -163 173 0
-162 -163 -173 0
162 163 -173 0
-162 163 173 0
164 -165 174 0
-164 -165 -174 0
164 165 -174 0
-164 165 174 0
166 -167 175 0
-166 -167 -175 0
166 167 -175 0
-166 167 175 0
168 -169 176 0
-168 -169 -176 0
168 169 -176 0
-168 169 176 0
170 -171 177 0
-170 -171 -177 0
170 171 -177 0
-170 171 177 0
172 -173 178 0
-172 -173 -178 0
172 173 -178 0
-172 173 178 0
174 -175 179 0
-174 -175 -179 0
174 175 -179 0
-174 175 179 0
176 -177 180 0
-176 -177 -180 0
176 177 -180 0
-176 177 180 0
-178 -179 180 0
178 -179 -180 0
-178 179 -180 0
178 179 180 0
-1 3 181 0
1 3 -181 0
-1 -3 -181 0
1 -3 181 0
-4 6 182 0
4 6 -182 0
-4 -6 -182 0
4 -6 182 0
7 9 183 0
-7 9 -183 0
7 -9 -183 0
-7 -9 183 0
13 14 184 0
-13 14 -184 0
13 -14 -184 0
-13 -14 184 0
-15 16 185 0
15 16 -185 0
-15 -16 -185 0
15 -16 185 0
-17 18 186 0
17 18 -186 0
-17 -18 -186 0
17 -18 186 0
19 -21 187 0
-19 -21 -187 0
19 21 -187 0
-19 21 187 0
24 -27 188 0
-24 -27 -188 0
24 27 -188 0
-24 27 188 0
28 29 189 0
-28 29 -189 0
28 -29 -189 0
-28 -29 189 0
31 -32 190 0
-31 -32 -190 0
31 32 -190 0
-31 32 190 0
-33 -36 191 0
33 -36 -191 0
-33 36 -191 0
33 36 191 0
-38 39 192 0
38 39 -192 0
-38 -39 -192 0
38 -39 192 0
-41 42 193 0
41 42 -193 0
-41 -42 -193 0
41 -42 193 0
-43 -45 194 0
43 -45 -194 0
-43 45 -194 0
43 45 194 0
46 -47 195 0
-46 -47 -195 0
46 47 -195 0
-46 47 195 0
49 50 196 0
-49 50 -196 0
49 -50 -196 0
-49 -50 196 0
181 -182 197 0
-181 -182 -197 0
181 182 -197 0
-181 182 197 0
183 -184 198 0
-183 -184 -198 0
183 184 -198 0
-183 184 198 0
185 -186 199 0
-185 -186 -199 0
185 186 -199 0
-185 186 199 0
187 -188 200 0
-187 -188 -200 0
187 188 -200 0
-187 188 200 0
189 -190 201 0
-189 -190 -201 0
189 190 -201 0
-189 190 201 0
191 -192 202 0
-191 -192 -202 0
191 192 -202 0
-191 192 202 0
193 -194 203 0
-193 -194 -203 0
193 194 -203 0
-193 194 203 0
195 -196 204 0
-195 -196 -204 0
195 196 -204 0
-195 196 204 0
197 -198 205 0
-197 -198 -205 0
197 198 -205 0
-197 198 205 0
199 -200 206 0
-199 -200 -206 0
199 200 -206 0
-199 200 206 0
201 -202 207 0
-201 -202 -207 0
201 202 -207 0
-201 202 207 0
203 -204 208 0
-203 -204 -208 0
203 204 -208 0
-203 204 208 0
205 -206 209 0
-205 -206 -209 0
205 206 -209 0
-205 206 209 0
207 -208 210 0
-207 -208 -210 0
207 208 -210 0
-207 208 210 0
209 210 0
-209 -210 0
-2 5 211 0
2 5 -211 0
-2 -5 -211 0
2 -5 211 0
-10 13 212 0
10 13 -212 0
-10 -13 -212 0
10 -13 212 0
-15 -17 213 0
15 -17 -213 0
-15 17 -213 0
15 17 213 0
20 -21 214 0
-20 -21 -214 0
20 21 -214 0
-20 21 214 0
-23 -24 215 0
23 -24 -215 0
-23 24 -215 0
23 24 215 0
26 32 216 0
-26 32 -216 0
26 -32 -216 0
-26 -32 216 0
-33 -35 217 0
33 -35 -217 0
-33 35 -217 0
33 35 217 0
-37 39 218 0
37 39 -218 0
-37 -39 -218 0
37 -39 218 0
40 -42 219 0
-40 -42 -219 0
40 42 -219 0
-40 42 219 0
-48 -49 220 0
48 -49 -220 0
-48 49 -220 0
48 49 220 0
211 -212 221 0
-211 -212 -221 0
211 212 -221 0
-211 212 221 0
213 -214 222 0
-213 -214 -222 0
213 214 -222 0
-213 214 222 0
215 -216 223 0
-215 -216 -223 0
215 216 -223 0
-215 216 223 0
217 -218 224 0
-217 -218 -224 0
217 218 -224 0
-217 218 224 0
219 -220 225 0
-219 -220 -225 0
219 220 -225 0
-219 220 225 0
221 -222 226 0
-221 -222 -226 0
221 222 -226 0
-221 222 226 0
223 -224 227 0
-223 -224 -227 0
223 224 -227 0
-223 224 227 0
-225 -226 227 0
225 -226 -227 0
-225 226 -227 0
225 226 227 0
-2 3 228 0
2 3 -228 0
-2 -3 -228 0
2 -3 228 0
4 6 229 0
-4 6 -229 0
4 -6 -229 0
-4 -6 229 0
12 -19 230 0
-12 -19 -230 0
12 19 -230 0
-12 19 230 0
-24 26 231 0
24 26 -231 0
-24 -26 -231 0
24 -26 231 0
27 -29 232 0
-27 -29 -232 0
27 29 -232 0
-27 29 232 0
30 31 233 0
-30 31 -233 0
30 -31 -233 0
-30 -31 233 0
32 -33 234 0
-32 -33 -234 0
32 33 -234 0
-32 33 234 0
-34 35 235 0
34 35 -235 0
-34 -35 -235 0
34 -35 235 0
-38 39 236 0
38 39 -236 0
-38 -39 -236 0
38 -39 236 0
41 -42 237 0
-41 -42 -237 0
41 42 -237 0
-41 42 237 0
-43 -45 238 0
43 -45 -238 0
-43 45 -238 0
43 45 238 0
46 -47 239 0
-46 -47 -239 0
46 47 -239 0
-46 47 239 0
228 -229 240 0
-228 -229 -240 0
228 229 -240 0
-228 229 240 0
230 -231 241 0
-230 -231 -241 0
230 231 -241 0
-230 231 241 0
232 -233 242 0
-232 -233 -242 0
232 233 -242 0
-232 233 242 0
234 -235 243 0
-234 -235 -243 0
234 235 -243 0
-234 235 243 0
236 -237 244 0
-236 -237 -244 0
236 237 -244 0
-236 237 244 0
238 -239 245 0
-238 -239 -245 0
238 239 -245 0
-238 239 245 0
240 -241 246 0
-240 -241 -246 0
240 241 -246 0
-240 241 246 0
242 -243 247 0
-242 -243 -247 0
242 243 -247 0
-242 243 247 0
244 -245 248 0
-244 -245 -248 0
244 245 -248 0
-244 245 248 0
-246 -247 248 0
246 -247 -248 0
-246 247 -248 0
246 247 248 0
-1 4 249 0
1 4 -249 0
-1 -4 -249 0
1 -4 249 0
-7 8 250 0
7 8 -250 0
-7 -8 -250 0
7 -8 250 0
11 13 251 0
-11 13 -251 0
11 -13 -251 0
-11 -13 251 0
14 -16 252 0
-14 -16 -252 0
14 16 -252 0
-14 16 252 0
-17 21 253 0
17 21 -253 0
-17 -21 -253 0
17 -21 253 0
22 23 254 0
-22 23 -254 0
22 -23 -254 0
-22 -23 254 0
-24 -27 255 0
24 -27 -255 0
-24 27 -255 0
24 27 255 0
28 29 256 0
-28 29 -256 0
28 -29 -256 0
-28 -29 256 0
31 32 257 0
-31 32 -257 0
31 -32 -257 0
-31 -32 257 0
-33 -34 258 0
33 -34 -258 0
-33 34 -258 0
33 34 258 0
38 40 259 0
-38 40 -259 0
38 -40 -259 0
-38 -40 259 0
43 44 260 0
-43 44 -260 0
43 -44 -260 0
-43 -44 260 0
45 -49 261 0
-45 -49 -261 0
45 49 -261 0
-45 49 261 0
248 -249 262 0
-248 -249 -262 0
248 249 -262 0
-248 249 262 0
250 -251 263 0
-250 -251 -263 0
250 251 -263 0
-250 251 263 0
252 -253 264 0
-252 -253 -264 0
252 253 -264 0
-252 253 264 0
254 -255 265 0
-254 -255 -265 0
254 255 -265 0
-254 255 265 0
256 -257 266 0
-256 -257 -266 0
256 257 -266 0
-256 257 266 0
258 -259 267 0
-258 -259 -267 0
258 259 -267 0
-258 259 267 0
260 -261 268 0
-260 -261 -268 0
260 261 -268 0
-260 261 268 0
262 -263 269 0
-262 -263 -269 0
262 263 -269 0
-262 263 269 0
264 -265 270 0
-264 -265 -270 0
264 265 -270 0
-264 265 270 0
266 -267 271 0
-266 -267 -271 0
266 267 -271 0
-266 267 271 0
268 -269 272 0
-268 -269 -272 0
268 269 -272 0
-268 269 272 0
270 -271 273 0
-270 -271 -273 0
270 271 -273 0
-270 271 273 0
272 273 0
-272 -273 0
-1 3 274 0
1 3 -274 0
-1 -3 -274 0
1 -3 274 0
-6 -7 275 0
6 -7 -275 0
-6 7 -275 0
6 7 275 0
14 -16 276 0
-14 -16 -276 0
14 16 -276 0
-14 16 276 0
-18 19 277 0
18 19 -277 0
-18 -19 -277 0
18 -19 277 0
-20 -22 278 0
20 -22 -278 0
-20 22 -278 0
20 22 278 0
24 -25 279 0
-24 -25 -279 0
24 25 -279 0
-24 25 279 0
30 -35 280 0
-30 -35 -280 0
30 35 -280 0
-30 35 280 0
36 -37 281 0
-36 -37 -281 0
36 37 -281 0
-36 37 281 0
-38 39 282 0
38 39 -282 0
-38 -39 -282 0
38 -39 282 0
40 42 283 0
-40 42 -283 0
40 -42 -283 0
-40 -42 283 0
43 44 284 0
-43 44 -284 0
43 -44 -284 0
-43 -44 284 0
-45 47 285 0
45 47 -285 0
-45 -47 -285 0
45 -47 285 0
49 50 286 0
-49 50 -286 0
49 -50 -286 0
-49 -50 286 0
274 -275 287 0
-274 -275 -287 0
274 275 -287 0
-274 275 287 0
276 -277 288 0
-276 -277 -288 0
276 277 -288 0
-276 277 288 0
278 -279 289 0
-278 -279 -289 0
278 279 -289 0
-278 279 289 0
280 -281 290 0
-280 -281 -290 0
280 281 -290 0
-280 281 290 0
282 -283 291 0
-282 -283 -291 0
282 283 -291 0
-282 283 291 0
284 -285 292 0
-284 -285 -292 0
284 285 -292 0
-284 285 292 0
286 -287 293 0
-286 -287 -293 0
286 287 -293 0
-286 287 293 0
288 -289 294 0
-288 -289 -294 0
288 289 -294 0
-288 289 294 0
290 -291 295 0
-290 -291 -295 0
290 291 -295 0
-290 291 295 0
292 -293 296 0
-292 -293 -296 0
292 293 -296 0
-292 293 296 0
294 -295 297 0
-294 -295 -297 0
294 295 -297 0
-294 295 297 0
296 297 0
-296 -297 0
-2 3 298 0
2 3 -298 0
-2 -3 -298 0
2 -3 298 0
-6 -7 299 0
6 -7 -299 0
-6 7 -299 0
6 7 299 0
9 11 300 0
-9 11 -300 0
9 -11 -300 0
-9 -11 300 0
-12 -14 301 0
12 -14 -301 0
-12 14 -301 0
12 14 301 0
16 -18 302 0
-16 -18 -302 0
16 18 -302 0
-16 18 302 0
-19 21 303 0
19 21 -303 0
-19 -21 -303 0
19 -21 303 0
-34 36 304 0
34 36 -304 0
-34 -36 -304 0
34 -36 304 0
-39 42 305 0
39 42 -305 0
-39 -42 -305 0
39 -42 305 0
-44 -45 306 0
44 -45 -306 0
-44 45 -306 0
44 45 306 0
297 -298 307 0
-297 -298 -307 0
297 298 -307 0
-297 298 307 0
299 -300 308 0
-299 -300 -308 0
299 300 -308 0
-299 300 308 0
301 -302 309 0
-301 -302 -309 0
301 302 -309 0
-301 302 309 0
303 -304 310 0
-303 -304 -310 0
303 304 -310 0
-303 304 310 0
305 -306 311 0
-305 -306 -311 0
305 306 -311 0
-305 306 311 0
307 -308 312 0
-307 -308 -312 0
307 308 -312 0
-307 308 312 0
309 -310 313 0
-309 -310 -313 0
309 310 -313 0
-309 310 313 0
-311 -312 313 0
311 -312 -313 0
-311 312 -313 0
311 312 313 0
-1 4 314 0
1 4 -314 0
-1 -4 -314 0
1 -4 314 0
-6 7 315 0
6 7 -315 0
-6 -7 -315 0
6 -7 315 0
8 -9 316 0
-8 -9 -316 0
8 9 -316 0
-8 9 316 0
10 12 317 0
-10 12 -317 0
10 -12 -317 0
-10 -12 317 0
-14 15 318 0
14 15 -318 0
-14 -15 -318 0
14 -15 318 0
-16 22 319 0
16 22 -319 0
-16 -22 -319 0
16 -22 319 0
23 -25 320 0
-23 -25 -320 0
23 25 -320 0
-23 25 320 0
-26 -27 321 0
26 -27 -321 0
-26 27 -321 0
26 27 321 0
-33 36 322 0
33 36 -322 0
-33 -36 -322 0
33 -36 322 0
-37 -42 323 0
37 -42 -323 0
-37 42 -323 0
37 42 323 0
-43 -47 324 0
43 -47 -324 0
-43 47 -324 0
43 47 324 0
313 -314 325 0
-313 -314 -325 0
313 314 -325 0
-313 314 325 0
315 -316 326 0
-315 -316 -326 0
315 316 -326 0
-315 316 326 0
317 -318 327 0
-317 -318 -327 0
317 318 -327 0
-317 318 327 0
319 -320 328 0
-319 -320 -328 0
319 320 -328 0
-319 320 328 0
321 -322 329 0
-321 -322 -329 0
321 322 -329 0
-321 322 329 0
323 -324 330 0
-323 -324 -330 0
323 324 -330 0
-323 324 330 0
325 -326 331 0
-325 -326 -331 0
325 326 -331 0
-325 326 331 0
327 -328 332 0
-327 -328 -332 0
327 328 -332 0
-327 328 332 0
329 -330 333 0
-329 -330 -333 0
329 330 -333 0
-329 330 333 0
-331 -332 333 0
331 -332 -333 0
-331 332 -333 0
331 332 333 0
1 2 334 0
-1 2 -334 0
1 -2 -334 0
-1 -2 334 0
3 -5 335 0
-3 -5 -335 0
3 5 -335 0
-3 5 335 0
-6 9 336 0
6 9 -336 0
-6 -9 -336 0
6 -9 336 0
10 -12 337 0
-10 -12 -337 0
10 12 -337 0
-10 12 337 0
-13 15 338 0
13 15 -338 0
-13 -15 -338 0
13 -15 338 0
16 -18 339 0
-16 -18 -339 0
16 18 -339 0
-16 18 339 0
-19 24 340 0
19 24 -340 0
-19 -24 -340 0
19 -24 340 0
30 33 341 0
-30 33 -341 0
30 -33 -341 0
-30 -33 341 0
34 35 342 0
-34 35 -342 0
34 -35 -342 0
-34 -35 342 0
-39 40 343 0
39 40 -343 0
-39 -40 -343 0
39 -40 343 0
42 45 344 0
-42 45 -344 0
42 -45 -344 0
-42 -45 344 0
47 -48 345 0
-47 -48 -345 0
47 48 -345 0
-47 48 345 0
333 -334 346 0
-333 -334 -346 0
333 334 -346 0
-333 334 346 0
335 -336 347 0
-335 -336 -347 0
335 336 -347 0
-335 336 347 0
337 -338 348 0
-337 -338 -348 0
337 338 -348 0
-337 338 348 0
339 -340 349 0
-339 -340 -349 0
339 340 -349 0
-339 340 349 0
341 -342 350 0
-341 -342 -350 0
341 342 -350 0
-341 342 350 0
343 -344 351 0
-343 -344 -351 0
343 344 -351 0
-343 344 351 0
345 -346 352 0
-345 -346 -352 0
345 346 -352 0
-345 346 352 0
347 -348 353 0
-347 -348 -353 0
347 348 -353 0
-347 348 353 0
349 -350 354 0
-349 -350 -354 0
349 350 -354 0
-349 350 354 0
351 -352 355 0
-351 -352 -355 0
351 352 -355 0
-351 352 355 0
353 -354 356 0
-353 -354 -356 0
353 354 -356 0
-353 354 356 0
355 356 0
-355 -356 0
2 3 357 0
-2 3 -357 0
2 -3 -357 0
-2 -3 357 0
4 -7 358 0
-4 -7 -358 0
4 7 -358 0
-4 7 358 0
-9 -11 359 0
9 -11 -359 0
-9 11 -359 0
9 11 359 0
-12 20 360 0
12 20 -360 0
-12 -20 -360 0
12 -20 360 0
21 23 361 0
-21 23 -361 0
21 -23 -361 0
-21 -23 361 0
25 26 362 0
-25 26 -362 0
25 -26 -362 0
-25 -26 362 0
-27 34 363 0
27 34 -363 0
-27 -34 -363 0
27 -34 363 0
35 36 364 0
-35 36 -364 0
35 -36 -364 0
-35 -36 364 0
-41 -44 365 0
41 -44 -365 0
-41 44 -365 0
41 44 365 0
45 49 366 0
-45 49 -366 0
45 -49 -366 0
-45 -49 366 0
357 -358 367 0
-357 -358 -367 0
357 358 -367 0
-357 358 367 0
359 -360 368 0
-359 -360 -368 0
359 360 -368 0
-359 360 368 0
361 -362 369 0
-361 -362 -369 0
361 362 -369 0
-361 362 369 0
363 -364 370 0
-363 -364 -370 0
363 364 -370 0
-363 364 370 0
365 -366 371 0
-365 -366 -371 0
365 366 -371 0
-365 366 371 0
367 -368 372 0
-367 -368 -372 0
367 368 -372 0
-367 368 372 0
369 -370 373 0
-369 -370 -373 0
369 370 -373 0
-369 370 373 0
-371 -372 373 0
371 -372 -373 0
-371 372 -373 0
371 372 373 0
-3 -5 374 0
3 -5 -374 0
-3 5 -374 0
3 5 374 0
-8 -9 375 0
8 -9 -375 0
-8 9 -375 0
8 9 375 0
-11 -16 376 0
11 -16 -376 0
-11 16 -376 0
11 16 376 0
-21 25 377 0
21 25 -377 0
-21 -25 -377 0
21 -25 377 0
26 -27 378 0
-26 -27 -378 0
26 27 -378 0
-26 27 378 0
31 33 379 0
-31 33 -379 0
31 -33 -379 0
-31 -33 379 0
34 35 380 0
-34 35 -380 0
34 -35 -380 0
-34 -35 380 0
-37 -43 381 0
37 -43 -381 0
-37 43 -381 0
37 43 381 0
44 -48 382 0
-44 -48 -382 0
44 48 -382 0
-44 48 382 0
-49 -50 383 0
49 -50 -383 0
-49 50 -383 0
49 50 383 0
374 -375 384 0
-374 -375 -384 0
374 375 -384 0
-374 375 384 0
376 -377 385 0
-376 -377 -385 0
376 377 -385 0
-376 377 385 0
378 -379 386 0
-378 -379 -386 0
378 379 -386 0
-378 379 386 0
380 -381 387 0
-380 -381 -387 0
380 381 -387 0
-380 381 387 0
382 -383 388 0
-382 -383 -388 0
382 383 -388 0
-382 383 388 0
384 -385 389 0
-384 -385 -389 0
384 385 -389 0
-384 385 389 0
386 -387 390 0
-386 -387 -390 0
386 387 -390 0
-386 387 390 0
-388 -389 390 0
388 -389 -390 0
-388 389 -390 0
388 389 390 0
1 2 391 0
-1 2 -391 0
1 -2 -391 0
-1 -2 391 0
-5 8 392 0
5 8 -392 0
-5 -8 -392 0
5 -8 392 0
9 -10 393 0
-9 -10 -393 0
9 10 -393 0
-9 10 393 0
13 -15 394 0
-13 -15 -394 0
13 15 -394 0
-13 15 394 0
17 -18 395 0
-17 -18 -395 0
17 18 -395 0
-17 18 395 0
-21 -23 396 0
21 -23 -396 0
-21 23 -396 0
21 23 396 0
24 -25 397 0
-24 -25 -397 0
24 25 -397 0
-24 25 397 0
26 28 398 0
-26 28 -398 0
26 -28 -398 0
-26 -28 398 0
-29 32 399 0
29 32 -399 0
-29 -32 -399 0
29 -32 399 0
34 36 400 0
-34 36 -400 0
34 -36 -400 0
-34 -36 400 0
-39 -40 401 0
39 -40 -401 0
-39 40 -401 0
39 40 401 0
43 -44 402 0
-43 -44 -402 0
43 44 -402 0
-43 44 402 0
391 -392 403 0
-391 -392 -403 0
391 392 -403 0
-391 392 403 0
393 -394 404 0
-393 -394 -404 0
393 394 -404 0
-393 394 404 0
395 -396 405 0
-395 -396 -405 0
395 396 -405 0
-395 396 405 0
397 -398 406 0
-397 -398 -406 0
397 398 -406 0
-397 398 406 0
399 -400 407 0
-399 -400 -407 0
399 400 -407 0
-399 400 407 0
401 -402 408 0
-401 -402 -408 0
401 402 -408 0
-401 402 408 0
403 -404 409 0
-403 -404 -409 0
403 404 -409 0
-403 404 409 0
405 -406 410 0
-405 -406 -410 0
405 406 -410 0
-405 406 410 0
407 -408 411 0
-407 -408 -411 0
407 408 -411 0
-407 408 411 0
-409 -410 411 0
409 -410 -411 0
-409 410 -411 0
409 410 411 0
1 7 412 0
-1 7 -412 0
1 -7 -412 0
-1 -7 412 0
9 -13 413 0
-9 -13 -413 0
9 13 -413 0
-9 13 413 0
17 -18 414 0
-17 -18 -414 0
17 18 -414 0
-17 18 414 0
-20 21 415 0
20 21 -415 0
-20 -21 -415 0
20 -21 415 0
-23 -27 416 0
23 -27 -416 0
-23 27 -416 0
23 27 416 0
30 -31 417 0
-30 -31 -417 0
30 31 -417 0
-30 31 417 0
33 36 418 0
-33 36 -418 0
33 -36 -418 0
-33 -36 418 0
37 38 419 0
-37 38 -419 0
37 -38 -419 0
-37 -38 419 0
-39 41 420 0
39 41 -420 0
-39 -41 -420 0
39 -41 420 0
-45 46 421 0
45 46 -421 0
-45 -46 -421 0
45 -46 421 0
-49 50 422 0
49 50 -422 0
-49 -50 -422 0
49 -50 422 0
412 -413 423 0
-412 -413 -423 0
412 413 -423 0
-412 413 423 0
414 -415 424 0
-414 -415 -424 0
414 415 -424 0
-414 415 424 0
416 -417 425 0
-416 -417 -425 0
416 417 -425 0
-416 417 425 0
418 -419 426 0
-418 -419 -426 0
418 419 -426 0
-418 419 426 0
420 -421 427 0
-420 -421 -427 0
420 421 -427 0
-420 421 427 0
422 -423 428 0
-422 -423 -428 0
422 423 -428 0
-422 423 428 0
424 -425 429 0
-424 -425 -429 0
424 425 -429 0
-424 425 429 0
426 -427 430 0
-426 -427 -430 0
426 427 -430 0
-426 427 430 0
-428 -429 430 0
428 -429 -430 0
-428 429 -430 0
428 429 430 0
5 -8 431 0
-5 -8 -431 0
5 8 -431 0
-5 8 431 0
10 -12 432 0
-10 -12 -432 0
10 12 -432 0
-10 12 432 0
-13 14 433 0
13 14 -433 0
-13 -14 -433 0
13 -14 433 0
-15 -16 434 0
15 -16 -434 0
-15 16 -434 0
15 16 434 0
18 20 435 0
-18 20 -435 0
18 -20 -435 0
-18 -20 435 0
21 -23 436 0
-21 -23 -436 0
21 23 -436 0
-21 23 436 0
-25 27 437 0
25 27 -437 0
-25 -27 -437 0
25 -27 437 0
-28 29 438 0
28 29 -438 0
-28 -29 -438 0
28 -29 438 0
30 32 439 0
-30 32 -439 0
30 -32 -439 0
-30 -32 439 0
-35 41 440 0
35 41 -440 0
-35 -41 -440 0
35 -41 440 0
-42 -49 441 0
42 -49 -441 0
-42 49 -441 0
42 49 441 0
430 -431 442 0
-430 -431 -442 0
430 431 -442 0
-430 431 442 0
432 -433 443 0
-432 -433 -443 0
432 433 -443 0
-432 433 443 0
434 -435 444 0
-434 -435 -444 0
434 435 -444 0
-434 435 444 0
436 -437 445 0
-436 -437 -445 0
436 437 -445 0
-436 437 445 0
438 -439 446 0
-438 -439 -446 0
438 439 -446 0
-438 439 446 0
440 -441 447 0
-440 -441 -447 0
440 441 -447 0
-440 441 447 0
442 -443 448 0
-442 -443 -448 0
442 443 -448 0
-442 443 448 0
444 -445 449 0
-444 -445 -449 0
444 445 -449 0
-444 445 449 0
446 -447 450 0
-446 -447 -450 0
446 447 -450 0
-446 447 450 0
-448 -449 450 0
448 -449 -450 0
-448 449 -450 0
448 449 450 0
-6 11 451 0
6 11 -451 0
-6 -11 -451 0
6 -11 451 0
14 15 452 0
-14 15 -452 0
14 -15 -452 0
-14 -15 452 0
-18 -23 453 0
18 -23 -453 0
-18 23 -453 0
18 23 453 0
24 -25 454 0
-24 -25 -454 0
24 25 -454 0
-24 25 454 0
26 30 455 0
-26 30 -455 0
26 -30 -455 0
-26 -30 455 0
32 -33 456 0
-32 -33 -456 0
32 33 -456 0
-32 33 456 0
34 -35 457 0
-34 -35 -457 0
34 35 -457 0
-34 35 457 0
36 -37 458 0
-36 -37 -458 0
36 37 -458 0
-36 37 458 0
40 42 459 0
-40 42 -459 0
40 -42 -459 0
-40 -42 459 0
46 49 460 0
-46 49 -460 0
46 -49 -460 0
-46 -49 460 0
451 -452 461 0
-451 -452 -461 0
451 452 -461 0
-451 452 461 0
453 -454 462 0
-453 -454 -462 0
453 454 -462 0
-453 454 462 0
455 -456 463 0
-455 -456 -463 0
455 456 -463 0
-455 456 463 0
457 -458 464 0
-457 -458 -464 0
457 458 -464 0
-457 458 464 0
459 -460 465 0
-459 -460 -465 0
459 460 -465 0
-459 460 465 0
461 -462 466 0
-461 -462 -466 0
461 462 -466 0
-461 462 466 0
463 -464 467 0
-463 -464 -467 0
463 464 -467 0
-463 464 467 0
-465 -466 467 0
465 -466 -467 0
-465 466 -467 0
465 466 467 0
-12 468 0
-24 468 0
-12 -24 469 0
-23 468 0
-12 -23 469 0
-24 -23 469 0
-12 -24 -23 470 0
-22 471 0
-21 471 0
-22 -21 472 0
-20 471 0
-22 -20 472 0
-21 -20 472 0
-22 -21 -20 473 0
-468 474 0
-469 475 0
-470 476 0
-471 474 0
-472 475 0
-473 476 0
-468 -471 475 0
-468 -472 476 0
-468 -473 477 0
-469 -471 476 0
-469 -472 477 0
-469 -473 478 0
-470 -471 477 0
-470 -472 478 0
-470 -473 479 0
-19 480 0
-18 480 0
-19 -18 481 0
-17 480 0
-19 -17 481 0
-18 -17 481 0
-19 -18 -17 482 0
-16 483 0
-15 483 0
-16 -15 484 0
-14 483 0
-16 -14 484 0
-15 -14 484 0
-16 -15 -14 485 0
-480 486 0
-481 487 0
-482 488 0
-483 486 0
-484 487 0
-485 488 0
-480 -483 487 0
-480 -484 488 0
-480 -485 489 0
-481 -483 488 0
-481 -484 489 0
-481 -485 490 0
-482 -483 489 0
-482 -484 490 0
-482 -485 491 0
-13 492 0
-25 492 0
-13 -25 493 0
-11 492 0
-13 -11 493 0
-25 -11 493 0
-13 -25 -11 494 0
-10 495 0
-9 495 0
-10 -9 496 0
-8 495 0
-10 -8 496 0
-9 -8 496 0
-10 -9 -8 497 0
-492 498 0
-493 499 0
-494 500 0
-495 498 0
-496 499 0
-497 500 0
-492 -495 499 0
-492 -496 500 0
-492 -497 501 0
-493 -495 500 0
-493 -496 501 0
-493 -497 502 0
-494 -495 501 0
-494 -496 502 0
-494 -497 503 0
-7 504 0
-6 504 0
-7 -6 505 0
-5 504 0
-7 -5 505 0
-6 -5 505 0
-7 -6 -5 506 0
-4 507 0
-3 507 0
-4 -3 508 0
-2 509 0
-1 509 0
-2 -1 510 0
-37 509 0
-2 -37 510 0
-1 -37 510 0
-2 -1 -37 511 0
-507 512 0
-508 513 0
-509 512 0
-510 513 0
-511 514 0
-507 -509 513 0
-507 -510 514 0
-507 -511 515 0
-508 -509 514 0
-508 -510 515 0
-508 -511 516 0
-504 517 0
-505 518 0
-506 519 0
-512 517 0
-513 518 0
-514 519 0
-515 520 0
-516 521 0
-504 -512 518 0
-504 -513 519 0
-504 -514 520 0
-504 -515 521 0
-504 -516 522 0
-505 -512 519 0
-505 -513 520 0
-505 -514 521 0
-505 -515 522 0
-505 -516 523 0
-506 -512 520 0
-506 -513 521 0
-506 -514 522 0
-506 -515 523 0
-506 -516 524 0
-49 525 0
-48 525 0
-49 -48 526 0
-47 525 0
-49 -47 526 0
-48 -47 526 0
-49 -48 -47 527 0
-46 528 0
-45 528 0
-46 -45 529 0
-44 530 0
-43 530 0
-44 -43 531 0
-42 530 0
-44 -42 531 0
-43 -42 531 0
-44 -43 -42 532 0
-528 533 0
-529 534 0
-530 533 0
-531 534 0
-532 535 0
-528 -530 534 0
-528 -531 535 0
-528 -532 536 0
-529 -530 535 0
-529 -531 536 0
-529 -532 537 0
-525 538 0
-526 539 0
-527 540 0
-533 538 0
-534 539 0
-535 540 0
-536 541 0
-537 542 0
-525 -533 539 0
-525 -534 540 0
-525 -535 541 0
-525 -536 542 0
-525 -537 543 0
-526 -533 540 0
-526 -534 541 0
-526 -535 542 0
-526 -536 543 0
-526 -537 544 0
-527 -533 541 0
-527 -534 542 0
-527 -535 543 0
-527 -536 544 0
-527 -537 545 0
-41 546 0
-40 546 0
-41 -40 547 0
-39 546 0
-41 -39 547 0
-40 -39 547 0
-41 -40 -39 548 0
-38 549 0
-50 549 0
-38 -50 550 0
-36 551 0
-35 551 0
-36 -35 552 0
-34 551 0
-36 -34 552 0
-35 -34 552 0
-36 -35 -34 553 0
-549 554 0
-550 555 0
-551 554 0
-552 555 0
-553 556 0
-549 -551 555 0
-549 -552 556 0
-549 -553 557 0
-550 -551 556 0
-550 -552 557 0
-550 -553 558 0
-546 559 0
-547 560 0
-548 561 0
-554 559 0
-555 560 0
-556 561 0
-557 562 0
-558 563 0
-546 -554 560 0
-546 -555 561 0
-546 -556 562 0
-546 -557 563 0
-546 -558 564 0
-547 -554 561 0
-547 -555 562 0
-547 -556 563 0
-547 -557 564 0
-547 -558 565 0
-548 -554 562 0
-548 -555 563 0
-548 -556 564 0
-548 -557 565 0
-548 -558 566 0
-33 567 0
-32 567 0
-33 -32 568 0
-31 567 0
-33 -31 568 0
-32 -31 568 0
-33 -32 -31 569 0
-30 570 0
-29 570 0
-30 -29 571 0
-28 572 0
-27 572 0
-28 -27 573 0
-26 572 0
-28 -26 573 0
-27 -26 573 0
-28 -27 -26 574 0
-570 575 0
-571 576 0
-572 575 0
-573 576 0
-574 577 0
-570 -572 576 0
-570 -573 577 0
-570 -574 578 0
-571 -572 577 0
-571 -573 578 0
-571 -574 579 0
-567 580 0
-568 581 0
-569 582 0
-575 580 0
-576 581 0
-577 582 0
-578 583 0
-579 584 0
-567 -575 581 0
-567 -576 582 0
-567 -577 583 0
-567 -578 584 0
-567 -579 585 0
-568 -575 582 0
-568 -576 583 0
-568 -577 584 0
-568 -578 585 0
-568 -579 586 0
-569 -575 583 0
-569 -576 584 0
-569 -577 585 0
-569 -578 586 0
-569 -579 587 0
-559 588 0
-561 589 0
-563 590 0
-565 591 0
-580 588 0
-582 589 0
-584 590 0
-586 591 0
-559 -580 589 0
-559 -582 590 0
-559 -584 591 0
-559 -586 592 0
-561 -580 590 0
-561 -582 591 0
-561 -584 592 0
-561 -586 593 0
-563 -580 591 0
-563 -582 592 0
-563 -584 593 0
-565 -580 592 0
-565 -582 593 0
-560 594 0
-564 595 0
-581 594 0
-585 595 0
-560 -581 595 0
-560 -585 596 0
-564 -581 596 0
-562 597 0
-566 598 0
-583 597 0
-587 598 0
-562 -583 598 0
-595 599 0
-597 599 0
-595 -597 600 0
-596 601 0
-598 601 0
-596 -598 602 0
-589 603 0
-594 603 0
-589 -594 604 0
-590 605 0
-599 605 0
-590 -599 606 0
-591 607 0
-600 607 0
-591 -600 608 0
-592 609 0
-601 609 0
-592 -601 610 0
-593 611 0
-602 611 0
-593 -602 612 0
-538 613 0
-540 614 0
-542 615 0
-544 616 0
-588 613 0
-604 614 0
-606 615 0
-608 616 0
-610 617 0
-612 618 0
-538 -588 614 0
-538 -604 615 0
-538 -606 616 0
-538 -608 617 0
-538 -610 618 0
-540 -588 615 0
-540 -604 616 0
-540 -606 617 0
-540 -608 618 0
-542 -588 616 0
-542 -604 617 0
-542 -606 618 0
-544 -588 617 0
-544 -604 618 0
-539 619 0
-543 620 0
-603 619 0
-607 620 0
-611 621 0
-539 -603 620 0
-539 -607 621 0
-543 -603 621 0
-541 622 0
-545 623 0
-605 622 0
-609 623 0
-541 -605 623 0
-620 624 0
-622 624 0
-620 -622 625 0
-621 626 0
-623 626 0
-621 -623 627 0
-614 628 0
-619 628 0
-614 -619 629 0
-615 630 0
-624 630 0
-615 -624 631 0
-616 632 0
-625 632 0
-616 -625 633 0
-617 634 0
-626 634 0
-617 -626 635 0
-618 636 0
-627 636 0
-618 -627 637 0
-517 638 0
-519 639 0
-521 640 0
-523 641 0
-613 638 0
-629 639 0
-631 640 0
-633 641 0
-635 642 0
-637 643 0
-517 -613 639 0
-517 -629 640 0
-517 -631 641 0
-517 -633 642 0
-517 -635 643 0
-519 -613 640 0
-519 -629 641 0
-519 -631 642 0
-519 -633 643 0
-521 -613 641 0
-521 -629 642 0
-521 -631 643 0
-523 -613 642 0
-523 -629 643 0
-518 644 0
-522 645 0
-628 644 0
-632 645 0
-636 646 0
-518 -628 645 0
-518 -632 646 0
-522 -628 646 0
-520 647 0
-524 648 0
-630 647 0
-634 648 0
-520 -630 648 0
-645 649 0
-647 649 0
-645 -647 650 0
-646 651 0
-648 651 0
-646 -648 652 0
-639 653 0
-644 653 0
-639 -644 654 0
-640 655 0
-649 655 0
-640 -649 656 0
-641 657 0
-650 657 0
-641 -650 658 0
-642 659 0
-651 659 0
-642 -651 660 0
-643 661 0
-652 661 0
-643 -652 662 0
-498 663 0
-500 664 0
-502 665 0
-638 663 0
-654 664 0
-656 665 0
-658 666 0
-660 667 0
-662 668 0
-498 -638 664 0
-498 -654 665 0
-498 -656 666 0
-498 -658 667 0
-498 -660 668 0
-500 -638 665 0
-500 -654 666 0
-500 -656 667 0
-500 -658 668 0
-502 -638 666 0
-502 -654 667 0
-502 -656 668 0
-499 669 0
-501 670 0
-503 671 0
-653 669 0
-655 670 0
-657 671 0
-659 672 0
-661 673 0
-499 -653 670 0
-499 -655 671 0
-499 -657 672 0
-499 -659 673 0
-501 -653 671 0
-501 -655 672 0
-501 -657 673 0
-503 -653 672 0
-503 -655 673 0
-664 674 0
-669 674 0
-664 -669 675 0
-665 676 0
-670 676 0
-665 -670 677 0
-666 678 0
-671 678 0
-666 -671 679 0
-667 680 0
-672 680 0
-667 -672 681 0
-668 682 0
-673 682 0
-668 -673 683 0
-486 684 0
-488 685 0
-490 686 0
-663 684 0
-675 685 0
-677 686 0
-679 687 0
-681 688 0
-683 689 0
-486 -663 685 0
-486 -675 686 0
-486 -677 687 0
-486 -679 688 0
-486 -681 689 0
-488 -663 686 0
-488 -675 687 0
-488 -677 688 0
-488 -679 689 0
-490 -663 687 0
-490 -675 688 0
-490 -677 689 0
-487 690 0
-489 691 0
-491 692 0
-674 690 0
-676 691 0
-678 692 0
-680 693 0
-682 694 0
-487 -674 691 0
-487 -676 692 0
-487 -678 693 0
-487 -680 694 0
-489 -674 692 0
-489 -676 693 0
-489 -678 694 0
-491 -674 693 0
-491 -676 694 0
-685 695 0
-690 695 0
-685 -690 696 0
-686 697 0
-691 697 0
-686 -691 698 0
-687 699 0
-692 699 0
-687 -692 700 0
-688 701 0
-693 701 0
-688 -693 702 0
-689 703 0
-694 703 0
-689 -694 704 0
-474 705 0
-476 706 0
-478 707 0
-684 705 0
-696 706 0
-698 707 0
-700 708 0
-702 709 0
-704 710 0
-474 -684 706 0
-474 -696 707 0
-474 -698 708 0
-474 -700 709 0
-474 -702 710 0
-476 -684 707 0
-476 -696 708 0
-476 -698 709 0
-476 -700 710 0
-478 -684 708 0
-478 -696 709 0
-478 -698 710 0
-475 711 0
-477 712 0
-479 713 0
-695 711 0
-697 712 0
-699 713 0
-701 714 0
-703 715 0
-475 -695 712 0
-475 -697 713 0
-475 -699 714 0
-475 -701 715 0
-477 -695 713 0
-477 -697 714 0
-477 -699 715 0
-479 -695 714 0
-479 -697 715 0
-706 716 0
-711 716 0
-706 -711 717 0
-707 718 0
-712 718 0
-707 -712 719 0
-708 720 0
-713 720 0
-708 -713 721 0
-709 722 0
-714 722 0
-709 -714 723 0
-710 724 0
-715 724 0
-710 -715 725 0
-725 0
